1847
1049
3492
3461
1526
2869
1798
3295
2946
1494
3395
1144
2949
3356
2345
1583
1931
2882
362
2369
1473
1935
1011
2134
1040
2863
2522
649
508
1067
2452
1965
1323
2050
985
1926
2171
1391
3191
1115
2683
3576
1441
2233
2382
1834
2240
2365
1419
2779

12243
3252
22737
21847
7118
22338
7916
23504
23350
7088
24025
6290
17152
23166
14114

399
106
741
712
232
728
258
766
761
231
783
205
559
755
460

1539.2

71
19
132
127
42
129
46
136
135
42
139
37
100
134
82
65
84
133
6
97
48
64
41
89
30
108
99
9
22
29
77
92
65
96
34
78
67
56
119
12
109
129
48
64
70
86
67
114
66
108
